decision_x1=[0,2];
decision_x2=[0,2];
decision_x3=[0,2];
decision_x4=[0,2];
decision_x5=[0,2];
decision_x6=[0,2];
decision_x7=[0,2];
decision_x8=[0,2];
decision_x9=[0,2];
decision_x10=[0,2];
decision_x11=[0,2];
decision_x12=[0,2];
random_y1=[0,2];
random_y2=[0,2];
random_y3=[0,2];
constraint_x2_x1=[
0,0,7.3|
0,1,1.4|
0,2,6.3|
1,0,4.7|
1,1,4.3|
1,2,0.61|
2,0,5.2|
2,1,8.8|
2,2,5.1|
];
constraint_x4_x3=[
0,0,3.5|
0,1,9.2|
0,2,3|
1,0,7.4|
1,1,8.1|
1,2,4.3|
2,0,8.8|
2,1,9.7|
2,2,4.8|
];
constraint_x5_x1=[
0,0,4|
0,1,5.5|
0,2,8.1|
1,0,9.3|
1,1,4.7|
1,2,5.3|
2,0,1.8|
2,1,4.2|
2,2,1.2|
];
constraint_x5_x4=[
0,0,0.26|
0,1,6.1|
0,2,6.9|
1,0,8.6|
1,1,5.5|
1,2,0.48|
2,0,2.4|
2,1,5.5|
2,2,4.3|
];
constraint_x6_x1=[
0,0,7|
0,1,2.8|
0,2,7.1|
1,0,3.7|
1,1,7.2|
1,2,1.4|
2,0,5.5|
2,1,3.9|
2,2,8.3|
];
constraint_x6_x2=[
0,0,9.5|
0,1,8.1|
0,2,1|
1,0,7|
1,1,4|
1,2,5.2|
2,0,4.4|
2,1,4.9|
2,2,4.1|
];
constraint_x6_x3=[
0,0,0.1|
0,1,1.2|
0,2,1.8|
1,0,6.2|
1,1,2.2|
1,2,9.7|
2,0,6.9|
2,1,2.2|
2,2,6|
];
constraint_x6_x4=[
0,0,3|
0,1,3.7|
0,2,3.9|
1,0,3.9|
1,1,9.5|
1,2,3.2|
2,0,4.1|
2,1,4.6|
2,2,9.2|
];
constraint_x6_x5=[
0,0,0.71|
0,1,6|
0,2,8|
1,0,2|
1,1,2|
1,2,5|
2,0,0.72|
2,1,1.9|
2,2,0.77|
];
constraint_x7_x1=[
0,0,3.4|
0,1,3.2|
0,2,6.7|
1,0,8.6|
1,1,2.1|
1,2,5.4|
2,0,5.2|
2,1,2.4e-05|
2,2,6.7|
];
constraint_x7_x3=[
0,0,8.3|
0,1,2.6|
0,2,9.1|
1,0,3.3|
1,1,5.5|
1,2,2.7|
2,0,0.73|
2,1,9.2|
2,2,8.5|
];
constraint_x7_x6=[
0,0,4.5|
0,1,4.4|
0,2,5.4|
1,0,3.9|
1,1,8.2|
1,2,6.1|
2,0,4.8|
2,1,1.7|
2,2,8.2|
];
constraint_x8_x1=[
0,0,9.2|
0,1,1.4|
0,2,0.27|
1,0,2|
1,1,6.2|
1,2,0.41|
2,0,1.2|
2,1,6.1|
2,2,9.8|
];
constraint_x9_x2=[
0,0,6.5|
0,1,6.4|
0,2,9.3|
1,0,0.88|
1,1,7.3|
1,2,3|
2,0,6.1|
2,1,3.9|
2,2,8.7|
];
constraint_x9_x4=[
0,0,3|
0,1,8|
0,2,8.2|
1,0,4.6|
1,1,2.8|
1,2,7.9|
2,0,3.9|
2,1,3.8|
2,2,4.8|
];
constraint_x9_x5=[
0,0,1.7|
0,1,7.1|
0,2,6.8|
1,0,4.3|
1,1,5.1|
1,2,2.6|
2,0,8|
2,1,1.3|
2,2,8.2|
];
constraint_x9_x7=[
0,0,3.4|
0,1,2.3|
0,2,8.6|
1,0,0.56|
1,1,8.9|
1,2,1.4|
2,0,4.1|
2,1,4|
2,2,2|
];
constraint_x10_x4=[
0,0,2.5|
0,1,5.4|
0,2,8.9|
1,0,2.6|
1,1,9.8|
1,2,6.7|
2,0,3.4|
2,1,5.2|
2,2,8.3|
];
constraint_x10_x5=[
0,0,5.7|
0,1,7.1|
0,2,1.7|
1,0,2|
1,1,2.8|
1,2,2.1|
2,0,9.1|
2,1,6.5|
2,2,4.9|
];
constraint_x10_x6=[
0,0,0.45|
0,1,4.9|
0,2,0.81|
1,0,3|
1,1,7|
1,2,8.7|
2,0,2.1|
2,1,6.5|
2,2,2.8|
];
constraint_x10_x8=[
0,0,7.9|
0,1,7|
0,2,8.7|
1,0,0.84|
1,1,5.4|
1,2,9.8|
2,0,2.8|
2,1,4.6|
2,2,4|
];
constraint_x10_x9=[
0,0,0.52|
0,1,1.2|
0,2,1.7|
1,0,8.4|
1,1,6|
1,2,4.4|
2,0,6.6|
2,1,7.7|
2,2,6.9|
];
constraint_x11_x1=[
0,0,3.8|
0,1,3.9|
0,2,0.17|
1,0,9.8|
1,1,3.5|
1,2,4.3|
2,0,7|
2,1,2.2|
2,2,5.8|
];
constraint_x11_x2=[
0,0,0.72|
0,1,6.2|
0,2,0.22|
1,0,8.5|
1,1,7.1|
1,2,9.2|
2,0,6.9|
2,1,6.6|
2,2,4.1|
];
constraint_x11_x3=[
0,0,5.3|
0,1,8.3|
0,2,1.8|
1,0,4.1|
1,1,8.2|
1,2,1.2|
2,0,7|
2,1,2.9|
2,2,5.3|
];
constraint_x11_x4=[
0,0,8.9|
0,1,0.67|
0,2,6|
1,0,8.3|
1,1,0.27|
1,2,9|
2,0,1.8|
2,1,1.3|
2,2,2.8|
];
constraint_x11_x5=[
0,0,4.1|
0,1,0.9|
0,2,3.1|
1,0,8.4|
1,1,9|
1,2,5.2|
2,0,5.5|
2,1,7.6|
2,2,6.1|
];
constraint_x11_x7=[
0,0,4.1|
0,1,8.4|
0,2,4.9|
1,0,5.1|
1,1,6.1|
1,2,0.34|
2,0,5.8|
2,1,2.8|
2,2,4.6|
];
constraint_x12_x3=[
0,0,0.06|
0,1,7.7|
0,2,7.3|
1,0,0.13|
1,1,4.7|
1,2,6.6|
2,0,8.6|
2,1,8|
2,2,2.5|
];
constraint_x12_x4=[
0,0,1.9|
0,1,6|
0,2,7.1|
1,0,3|
1,1,4.5|
1,2,0.29|
2,0,7.6|
2,1,3.9|
2,2,9.7|
];
constraint_x12_x9=[
0,0,7.1|
0,1,4.9|
0,2,2.4|
1,0,4.3|
1,1,7.7|
1,2,2.6|
2,0,5.9|
2,1,3|
2,2,1.2|
];
constraint_x12_x10=[
0,0,2.7|
0,1,5.2|
0,2,7.5|
1,0,8.6|
1,1,9.3|
1,2,7.6|
2,0,7.6|
2,1,7.6|
2,2,4.8|
];
constraint_x12_x11=[
0,0,3.6|
0,1,8.2|
0,2,3.8|
1,0,5.3|
1,1,3.3|
1,2,0.62|
2,0,0.12|
2,1,4.4|
2,2,6.1|
];
constraint_x1_y1=[
0,0,8.2|
0,1,4.4|
0,2,2.3|
1,0,5.1|
1,1,9.4|
1,2,4.2|
2,0,7.4|
2,1,4.6|
2,2,5.8|
];
constraint_x2_y2=[
0,0,5.5|
0,1,3|
0,2,3.8|
1,0,6.1|
1,1,0.85|
1,2,2.4|
2,0,0.94|
2,1,0.35|
2,2,7.6|
];
constraint_x3_y3=[
0,0,2.2|
0,1,8.3|
0,2,2.5|
1,0,3.4|
1,1,9.3|
1,2,8|
2,0,2.5|
2,1,0.66|
2,2,3.9|
];
initial_distribution_y1=[0.21,0.39,0.41];
initial_distribution_y2=[0.78,0.16,0.056];
initial_distribution_y3=[0.45,0.27,0.28];
transition_y1=[
0.43,0.36,0.22|
0.27,0.19,0.54|
0.35,0.59,0.061|
];
transition_y2=[
0.56,0.089,0.35|
0.078,0.38,0.54|
0.45,0.4,0.14|
];
transition_y3=[
0.28,0.3,0.41|
0.031,0.42,0.55|
0.14,0.64,0.21|
];
